SCIP version 5.0.0 [precision: 8 byte] [memory: block] [mode: optimized] [LP solver: NONE] [GitHash: 3bbd232]
Copyright (C) 2002-2017 Konrad-Zuse-Zentrum fuer Informationstechnik Berlin (ZIB)

External codes: 
  Readline EditLine w  GNU library for command line editing (gnu.org/s/readline)
  CppAD 20160000.1     Algorithmic Differentiation of C++ algorithms developed by B. Bell (www.coin-or.org/CppAD)
  ZLIB 1.2.5           General purpose compression library by J. Gailly and M. Adler (zlib.net)
  GMP 6.1.2            GNU Multiple Precision Arithmetic Library developed by T. Granlund (gmplib.org)

user parameter file <scip.set> not found - using default parameters

read problem <../../Split_data/output/biodeg/4/0_sample_biodeg.logreg>
============

File name	:	../../Split_data/output/biodeg/4/0_sample_biodeg.logreg
Problem name 	:	0_sample_biodeg
Number of data	:	844
Number of var	:	41
The given data has linear independence

[dim=1] time: 0.033371
[dim=2] time: 0.063466
[dim=3] time: 0.096567
[dim=4] time: 0.128407
[dim=5] time: 0.167211
[dim=6] time: 0.196538
[dim=7] time: 0.224822
[dim=8] time: 0.252297
[dim=9] time: 0.279441
[dim=10] time: 0.306574
[dim=11] time: 0.334208
[dim=12] time: 0.359746
[dim=13] time: 0.375671
[dim=14] time: 0.391826
[dim=15] time: 0.407986
[dim=16] time: 0.424084
[dim=17] time: 0.442009
[dim=18] time: 0.459826
[dim=19] time: 0.474264
[dim=20] time: 0.523892
[dim=21] time: 0.538688
[dim=22] time: 0.552384
[dim=23] time: 0.566314
[dim=24] time: 0.578716
[dim=25] time: 0.591706
[dim=26] time: 0.605952
[dim=27] Time of forward = 0.628251sec.
AIC: 517.588
k: 26

[dim=41] time: 0.149744
[dim=40] time: 0.200204
[dim=39] time: 0.241299
[dim=38] time: 0.282351
[dim=37] time: 0.326495
[dim=36] time: 0.372763
[dim=35] time: 0.420606
[dim=34] time: 0.474779
[dim=33] time: 0.574374
[dim=32] time: 0.621479
[dim=31] time: 0.657909
[dim=30] time: 0.69364
[dim=29] time: 0.723811
[dim=28] time: 0.776103
[dim=27] time: 0.843706
[dim=26] time: 0.869649
[dim=25] time: 0.895533
[dim=24] Time of backward = 0.9168sec.
AIC: 513.878
k: 25
